nNurses = 78;
nHours = 30;
minHours = 6;
maxHours = 12;
maxConsec = 10;
maxPresence = 19;
demand = [11, 8, 5, 6, 11, 12, 8, 6, 6, 7, 6, 8, 13, 18, 17, 20, 22, 25, 22, 20, 15, 11, 13, 10, 15, 12, 8, 12, 8, 13];
